sat
(:max-memory                   18.05
 :memory                       18.05
 :nlsat-irrational-assignments 2
 :nlsat-propagations           4
 :nlsat-stages                 7
 :num-allocs                   22645
 :rlimit-count                 1345
 :time                         0.00
 :total-time                   0.01)
